
n_res = 6;
rcap = [96, 75, 1022, 973, 1084, 1029];
rtype = [1, 1, 2, 2, 2, 2];
n_tasks = 100;
modes =  [{1, 2, 3, 4, 5, 6}, {7, 8, 9, 10, 11, 12}, {13, 14, 15, 16, 17, 18}, {19, 20, 21, 22, 23, 24}, {25, 26, 27, 28, 29, 30}, {31, 32, 33, 34, 35, 36}, {37, 38, 39, 40, 41, 42}, {43, 44, 45, 46, 47, 48}, {49, 50, 51, 52, 53, 54}, {55, 56, 57, 58, 59, 60}, {61, 62, 63, 64, 65, 66}, {67, 68, 69, 70, 71, 72}, {73, 74, 75, 76, 77, 78}, {79, 80, 81, 82, 83, 84}, {85, 86, 87, 88, 89, 90}, {91, 92, 93, 94, 95, 96}, {97, 98, 99, 100, 101, 102}, {103, 104, 105, 106, 107, 108}, {109, 110, 111, 112, 113, 114}, {115, 116, 117, 118, 119, 120}, {121, 122, 123, 124, 125, 126}, {127, 128, 129, 130, 131, 132}, {133, 134, 135, 136, 137, 138}, {139, 140, 141, 142, 143, 144}, {145, 146, 147, 148, 149, 150}, {151, 152, 153, 154, 155, 156}, {157, 158, 159, 160, 161, 162}, {163, 164, 165, 166, 167, 168}, {169, 170, 171, 172, 173, 174}, {175, 176, 177, 178, 179, 180}, {181, 182, 183, 184, 185, 186}, {187, 188, 189, 190, 191, 192}, {193, 194, 195, 196, 197, 198}, {199, 200, 201, 202, 203, 204}, {205, 206, 207, 208, 209, 210}, {211, 212, 213, 214, 215, 216}, {217, 218, 219, 220, 221, 222}, {223, 224, 225, 226, 227, 228}, {229, 230, 231, 232, 233, 234}, {235, 236, 237, 238, 239, 240}, {241, 242, 243, 244, 245, 246}, {247, 248, 249, 250, 251, 252}, {253, 254, 255, 256, 257, 258}, {259, 260, 261, 262, 263, 264}, {265, 266, 267, 268, 269, 270}, {271, 272, 273, 274, 275, 276}, {277, 278, 279, 280, 281, 282}, {283, 284, 285, 286, 287, 288}, {289, 290, 291, 292, 293, 294}, {295, 296, 297, 298, 299, 300}, {301, 302, 303, 304, 305, 306}, {307, 308, 309, 310, 311, 312}, {313, 314, 315, 316, 317, 318}, {319, 320, 321, 322, 323, 324}, {325, 326, 327, 328, 329, 330}, {331, 332, 333, 334, 335, 336}, {337, 338, 339, 340, 341, 342}, {343, 344, 345, 346, 347, 348}, {349, 350, 351, 352, 353, 354}, {355, 356, 357, 358, 359, 360}, {361, 362, 363, 364, 365, 366}, {367, 368, 369, 370, 371, 372}, {373, 374, 375, 376, 377, 378}, {379, 380, 381, 382, 383, 384}, {385, 386, 387, 388, 389, 390}, {391, 392, 393, 394, 395, 396}, {397, 398, 399, 400, 401, 402}, {403, 404, 405, 406, 407, 408}, {409, 410, 411, 412, 413, 414}, {415, 416, 417, 418, 419, 420}, {421, 422, 423, 424, 425, 426}, {427, 428, 429, 430, 431, 432}, {433, 434, 435, 436, 437, 438}, {439, 440, 441, 442, 443, 444}, {445, 446, 447, 448, 449, 450}, {451, 452, 453, 454, 455, 456}, {457, 458, 459, 460, 461, 462}, {463, 464, 465, 466, 467, 468}, {469, 470, 471, 472, 473, 474}, {475, 476, 477, 478, 479, 480}, {481, 482, 483, 484, 485, 486}, {487, 488, 489, 490, 491, 492}, {493, 494, 495, 496, 497, 498}, {499, 500, 501, 502, 503, 504}, {505, 506, 507, 508, 509, 510}, {511, 512, 513, 514, 515, 516}, {517, 518, 519, 520, 521, 522}, {523, 524, 525, 526, 527, 528}, {529, 530, 531, 532, 533, 534}, {535, 536, 537, 538, 539, 540}, {541, 542, 543, 544, 545, 546}, {547, 548, 549, 550, 551, 552}, {553, 554, 555, 556, 557, 558}, {559, 560, 561, 562, 563, 564}, {565, 566, 567, 568, 569, 570}, {571, 572, 573, 574, 575, 576}, {577, 578, 579, 580, 581, 582}, {583, 584, 585, 586, 587, 588}, {589, 590, 591, 592, 593, 594}, {595, 596, 597, 598, 599, 600}];
succ =  [{19, 18, 17, 15, 11, 7}, {20, 18, 16, 11, 5}, {20, 17, 16, 15, 11}, {34, 30, 27, 26, 25, 23, 20, 16, 15}, {28, 26, 25, 23, 22, 21, 15, 14}, {34, 30, 28, 25, 22, 21, 18, 15}, {38, 29, 26, 25, 24, 23, 20, 14}, {29, 26, 21, 20, 11}, {32, 27, 26, 25, 23, 15}, {27, 25, 19, 18}, {38, 34, 30, 28, 25, 22}, {35, 34, 32, 28, 23, 21}, {35, 34, 32, 25, 24, 21}, {36, 35, 34, 33, 32, 31, 27}, {38, 37, 33, 31, 29, 24}, {38, 37, 33, 31, 29, 24}, {34, 26, 25, 21}, {44, 38, 35, 33, 32, 26}, {35, 32, 28, 23}, {36, 35, 32, 28}, {44, 42, 36, 33, 27}, {39, 37, 36, 33, 32}, {48, 44, 42, 37, 36, 33}, {56, 55, 48, 47, 46, 44, 42, 40, 39, 36}, {56, 48, 46, 42, 40, 39, 37, 36}, {56, 48, 46, 42, 40, 39, 37, 36}, {56, 51, 50, 48, 46, 41, 40, 39, 37}, {48, 42, 37, 33}, {55, 46, 42, 40, 35}, {59, 57, 56, 55, 53, 51, 50, 47, 44, 42, 40}, {59, 57, 55, 53, 51, 47, 46, 44, 42, 40}, {57, 56, 55, 51, 50, 48, 42, 40}, {59, 57, 56, 55, 51, 50, 46, 45, 40}, {57, 55, 53, 51, 50, 46, 44, 40}, {51, 50, 48, 47, 43, 39}, {58, 57, 51, 50, 49, 45, 41}, {59, 58, 57, 55, 54, 47, 45, 43}, {63, 59, 58, 57, 54, 53, 49}, {59, 58, 57, 53, 49, 45}, {58, 54, 43}, {73, 63, 62, 59, 54, 53, 52}, {49, 45}, {65, 63, 49}, {45}, {73, 69, 65, 63, 62, 52}, {63, 49}, {73, 69, 65, 64, 63, 52}, {70, 65, 63, 62, 53}, {73, 69, 62, 52}, {73, 64, 52}, {75, 73, 72, 71, 68, 66, 65, 64, 60}, {75, 72, 71, 70, 68, 66, 60}, {75, 72, 69, 68, 66, 60}, {75, 74, 72, 70, 66, 65, 64, 61}, {79, 78, 75, 74, 73, 71, 69, 67, 65}, {80, 78, 75, 74, 72, 70, 68, 66, 63}, {80, 75, 74, 73, 69, 68, 66, 64}, {80, 78, 75, 74, 66, 62}, {84, 75, 74, 69, 66, 61}, {74, 67, 61}, {94, 90, 83, 81, 80, 79, 78, 77, 76}, {83, 77, 76, 68, 64}, {90, 89, 87, 84, 83, 82, 81, 77, 76}, {99, 97, 90, 89, 87, 86, 85, 84, 82, 81}, {99, 97, 90, 89, 84, 81, 80, 77}, {90, 89, 83, 81, 79, 77, 76}, {89, 87, 84, 82, 81, 76}, {99, 97, 90, 89, 86, 84, 82, 81}, {99, 98, 97, 94, 90, 89, 87, 82, 81}, {90, 89, 87, 86, 85, 84, 82}, {98, 95, 89, 87, 83, 81}, {100, 99, 88, 86, 85, 84}, {97, 94, 89, 82, 81}, {99, 98, 95, 94, 93, 90, 89, 88, 86}, {99, 97, 89, 82}, {99, 97, 95, 85}, {96, 88, 86, 85}, {97, 89, 88, 87}, {85, 82}, {98, 96, 95, 93, 92, 91}, {100, 96, 93, 92, 91}, {95, 93, 92, 88}, {97, 93, 92, 88}, {98, 96, 94, 92}, {93, 92, 91}, {92, 91}, {93, 91}, {91}, {92}, {91}, {}, {}, {}, {}, {}, {}, {}, {}, {}, {}];
n_opt = 600;
dur = [2, 13, 14, 16, 17, 20, 3, 7, 8, 12, 18, 20, 1, 2, 5, 8, 18, 20, 8, 9, 10, 11, 14, 17, 2, 3, 6, 10, 14, 19, 6, 7, 9, 10, 12, 15, 4, 6, 7, 15, 18, 20, 7, 8, 9, 10, 17, 18, 3, 4, 5, 6, 7, 10, 3, 6, 12, 13, 15, 16, 1, 2, 4, 6, 9, 20, 4, 5, 6, 12, 13, 20, 4, 5, 6, 10, 19, 20, 1, 3, 4, 5, 10, 18, 7, 9, 13, 14, 15, 17, 3, 4, 8, 9, 17, 18, 11, 13, 14, 16, 18, 20, 7, 8, 12, 13, 16, 20, 5, 7, 8, 15, 16, 17, 4, 5, 9, 16, 17, 20, 5, 6, 11, 14, 16, 20, 4, 6, 7, 18, 19, 20, 3, 4, 5, 6, 7, 18, 3, 4, 11, 12, 15, 16, 4, 5, 9, 11, 12, 13, 3, 5, 7, 12, 13, 20, 1, 3, 8, 12, 15, 20, 6, 7, 9, 10, 13, 17, 3, 4, 7, 12, 16, 17, 2, 3, 7, 10, 12, 18, 8, 10, 11, 13, 17, 18, 7, 9, 13, 14, 16, 17, 6, 7, 8, 13, 14, 19, 1, 5, 6, 8, 16, 17, 2, 3, 5, 6, 7, 14, 1, 5, 10, 11, 13, 17, 4, 8, 10, 12, 19, 20, 9, 11, 12, 14, 16, 17, 1, 2, 11, 12, 17, 19, 1, 4, 6, 12, 13, 18, 1, 2, 3, 9, 10, 11, 6, 8, 9, 14, 15, 16, 3, 6, 7, 8, 9, 13, 1, 7, 9, 10, 13, 17, 1, 7, 12, 14, 18, 20, 2, 9, 10, 13, 17, 18, 4, 6, 11, 16, 17, 20, 5, 8, 16, 17, 18, 20, 1, 4, 5, 10, 11, 13, 2, 6, 7, 11, 18, 20, 1, 7, 10, 15, 16, 17, 7, 10, 12, 13, 14, 20, 3, 8, 13, 17, 18, 19, 1, 8, 13, 14, 15, 16, 4, 5, 6, 14, 17, 20, 2, 3, 12, 13, 16, 18, 1, 3, 7, 9, 12, 20, 2, 3, 5, 6, 8, 10, 6, 7, 8, 9, 19, 20, 1, 2, 9, 13, 15, 16, 1, 3, 5, 17, 18, 19, 1, 4, 10, 13, 14, 18, 2, 5, 8, 10, 13, 18, 1, 2, 3, 9, 10, 18, 5, 6, 8, 14, 15, 16, 3, 5, 12, 13, 17, 20, 4, 8, 10, 15, 16, 20, 2, 3, 4, 5, 8, 11, 1, 3, 4, 6, 10, 12, 5, 8, 10, 11, 12, 20, 8, 12, 16, 17, 19, 20, 4, 6, 7, 8, 10, 20, 1, 3, 9, 15, 16, 18, 1, 7, 10, 11, 14, 15, 3, 11, 14, 15, 17, 20, 6, 7, 8, 9, 11, 20, 5, 8, 9, 11, 12, 20, 1, 3, 4, 7, 8, 19, 3, 4, 5, 6, 8, 9, 1, 2, 9, 14, 15, 17, 1, 2, 9, 10, 15, 18, 5, 6, 11, 12, 14, 19, 2, 10, 11, 12, 13, 16, 2, 3, 5, 16, 18, 20, 2, 3, 5, 7, 12, 13, 14, 15, 16, 17, 18, 20, 6, 9, 10, 15, 16, 17, 4, 5, 6, 7, 19, 20, 2, 3, 7, 18, 19, 20, 2, 6, 9, 11, 18, 19, 1, 3, 5, 17, 18, 19, 2, 3, 10, 12, 17, 18, 5, 7, 9, 11, 19, 20, 4, 5, 7, 9, 11, 19, 2, 4, 8, 12, 13, 18, 2, 3, 7, 11, 17, 18, 1, 3, 11, 16, 19, 20, 2, 10, 13, 14, 18, 19, 1, 3, 4, 6, 7, 8, 5, 6, 9, 10, 13, 15];
rreq = [|6, 5, 5, 4, 4, 3, 10, 9, 8, 5, 3, 3, 19, 17, 14, 13, 11, 10, 11, 10, 10, 10, 9, 8, 19, 18, 14, 12, 10, 8, 15, 13, 11, 10, 8, 6, 10, 8, 8, 6, 4, 3, 13, 11, 10, 9, 7, 7, 20, 17, 12, 9, 8, 6, 1, 1, 1, 1, 1, 1, 7, 6, 5, 4, 2, 2, 15, 14, 14, 13, 13, 12, 19, 18, 18, 17, 17, 16, 16, 15, 12, 8, 6, 4, 8, 6, 6, 5, 3, 3, 18, 16, 16, 13, 12, 10, 2, 1, 1, 1, 1, 1, 14, 12, 9, 6, 6, 4, 16, 14, 14, 13, 11, 11, 17, 15, 14, 9, 6, 5, 12, 10, 8, 6, 5, 2, 18, 17, 17, 16, 15, 15, 17, 14, 12, 11, 9, 6, 10, 7, 6, 5, 4, 2, 9, 6, 5, 5, 2, 2, 10, 8, 6, 4, 3, 2, 1, 1, 1, 1, 1, 1, 7, 6, 6, 6, 5, 4, 14, 13, 12, 12, 9, 9, 14, 12, 12, 9, 6, 6, 20, 20, 20, 20, 20, 20, 3, 3, 3, 3, 2, 2, 12, 12, 12, 12, 11, 11, 9, 8, 6, 6, 5, 4, 14, 13, 12, 9, 7, 2, 17, 17, 17, 17, 17, 17, 17, 15, 15, 14, 13, 13, 5, 4, 4, 4, 4, 4, 17, 17, 15, 15, 14, 13, 18, 18, 16, 16, 14, 14, 20, 19, 19, 18, 18, 18, 16, 14, 12, 11, 8, 6, 16, 12, 11, 8, 4, 3, 5, 5, 3, 2, 1, 1, 12, 11, 11, 9, 7, 6, 15, 15, 14, 14, 14, 13, 9, 8, 8, 6, 4, 4, 19, 18, 18, 18, 18, 18, 8, 8, 8, 7, 7, 6, 12, 9, 7, 7, 3, 3, 20, 18, 16, 15, 14, 13, 19, 18, 17, 15, 14, 13, 17, 16, 16, 15, 15, 15, 17, 14, 12, 9, 7, 7, 17, 17, 17, 17, 16, 16, 20, 15, 11, 7, 7, 4, 18, 17, 15, 15, 13, 12, 15, 15, 15, 15, 15, 15, 10, 9, 7, 7, 6, 5, 16, 12, 10, 8, 7, 4, 16, 14, 14, 14, 13, 12, 15, 12, 11, 10, 7, 6, 14, 14, 13, 10, 9, 8, 17, 15, 13, 9, 9, 6, 10, 10, 7, 6, 5, 3, 8, 6, 6, 4, 3, 2, 18, 15, 11, 8, 8, 5, 10, 10, 10, 10, 10, 10, 12, 12, 10, 10, 7, 6, 10, 7, 6, 5, 4, 2, 17, 16, 14, 12, 9, 8, 16, 16, 15, 14, 13, 12, 6, 6, 5, 5, 3, 3, 16, 13, 12, 9, 7, 6, 7, 6, 5, 4, 3, 3, 19, 14, 14, 11, 8, 6, 17, 16, 14, 13, 11, 9, 19, 18, 16, 15, 14, 14, 11, 10, 10, 9, 7, 7, 11, 10, 8, 7, 6, 5, 19, 13, 11, 10, 4, 4, 10, 10, 9, 8, 7, 7, 20, 20, 20, 20, 20, 20, 15, 14, 14, 12, 12, 10, 10, 9, 9, 9, 8, 8, 8, 8, 8, 8, 8, 8, 16, 13, 12, 9, 9, 6, 18, 17, 17, 17, 16, 16, 8, 8, 8, 8, 8, 8, 7, 7, 5, 5, 3, 2, 15, 14, 14, 14, 13, 13, 12, 12, 10, 10, 9, 8, 10, 9, 8, 7, 6, 5, 8, 8, 8, 8, 8, 8, 9, 9, 7, 6, 6, 5, 11, 10, 8, 8, 7, 6, 19, 17, 13, 13, 10, 7, 18, 18, 15, 15, 13, 11, 18, 15, 14, 14, 12, 9, 12, 11, 9, 9, 7, 7
 |19, 13, 12, 11, 6, 5, 16, 15, 14, 14, 12, 12, 14, 13, 11, 11, 10, 8, 15, 14, 12, 11, 9, 7, 13, 11, 11, 10, 7, 6, 4, 3, 3, 3, 2, 2, 10, 9, 9, 6, 5, 4, 14, 14, 14, 14, 14, 14, 6, 5, 5, 5, 5, 5, 19, 17, 15, 13, 10, 9, 15, 14, 14, 13, 11, 11, 18, 16, 14, 13, 12, 9, 6, 5, 4, 3, 3, 2, 13, 13, 12, 12, 12, 11, 19, 16, 14, 9, 6, 5, 16, 15, 15, 14, 13, 13, 10, 10, 10, 9, 9, 9, 7, 7, 7, 7, 7, 7, 19, 17, 16, 14, 11, 9, 20, 19, 18, 18, 16, 16, 2, 2, 2, 2, 2, 2, 9, 8, 7, 7, 7, 6, 12, 11, 11, 9, 8, 8, 14, 14, 10, 10, 7, 5, 12, 12, 12, 12, 12, 12, 12, 12, 9, 6, 6, 2, 12, 11, 11, 11, 10, 10, 18, 18, 18, 17, 17, 17, 13, 11, 10, 7, 4, 2, 14, 10, 9, 8, 5, 3, 16, 13, 12, 11, 5, 3, 17, 17, 12, 12, 8, 7, 8, 8, 8, 8, 8, 8, 18, 14, 14, 13, 11, 9, 17, 16, 16, 15, 15, 15, 9, 8, 8, 8, 7, 7, 8, 7, 7, 4, 4, 2, 15, 15, 15, 15, 15, 15, 13, 13, 12, 11, 11, 10, 6, 6, 4, 4, 2, 2, 7, 7, 7, 7, 7, 7, 18, 18, 18, 17, 17, 17, 9, 9, 9, 8, 8, 7, 17, 16, 15, 15, 14, 14, 10, 10, 10, 9, 8, 8, 14, 14, 14, 13, 13, 12, 8, 7, 7, 5, 5, 3, 10, 8, 8, 6, 6, 5, 7, 7, 7, 6, 6, 6, 17, 16, 14, 11, 10, 6, 14, 12, 11, 9, 6, 3, 6, 6, 5, 4, 3, 2, 6, 5, 5, 5, 4, 4, 9, 9, 9, 9, 9, 9, 12, 10, 8, 7, 6, 4, 12, 10, 8, 6, 3, 1, 14, 14, 12, 9, 8, 6, 16, 14, 11, 10, 5, 5, 5, 4, 3, 2, 2, 1, 14, 13, 12, 12, 11, 10, 11, 10, 10, 10, 9, 9, 15, 14, 11, 8, 5, 5, 19, 19, 19, 18, 17, 17, 16, 15, 15, 15, 15, 15, 9, 9, 9, 9, 9, 9, 6, 6, 6, 5, 5, 5, 13, 13, 12, 12, 11, 11, 17, 16, 16, 16, 16, 16, 19, 16, 13, 13, 10, 7, 17, 16, 16, 15, 14, 14, 12, 10, 9, 7, 5, 4, 16, 14, 13, 8, 4, 4, 13, 13, 12, 11, 10, 10, 2, 1, 1, 1, 1, 1, 20, 20, 20, 20, 20, 20, 18, 17, 17, 16, 15, 15, 13, 12, 11, 10, 10, 8, 3, 3, 3, 3, 3, 3, 8, 7, 7, 7, 7, 7, 2, 2, 2, 2, 2, 2, 6, 5, 4, 4, 3, 1, 5, 3, 3, 2, 2, 1, 18, 16, 14, 13, 11, 10, 10, 9, 8, 7, 5, 5, 17, 14, 14, 13, 11, 10, 15, 14, 14, 13, 13, 13, 17, 13, 12, 8, 7, 5, 11, 10, 8, 7, 3, 3, 7, 7, 6, 5, 5, 4, 14, 14, 13, 12, 11, 10, 17, 16, 15, 14, 14, 13, 17, 14, 14, 13, 11, 11, 13, 11, 11, 8, 7, 6, 3, 3, 3, 3, 3, 3, 7, 6, 6, 6, 5, 5, 13, 10, 8, 8, 7, 5, 14, 10, 8, 8, 6, 2, 8, 7, 7, 6, 6, 6, 16, 15, 15, 15, 15, 15, 11, 8, 8, 5, 4, 2
 |16, 16, 13, 10, 8, 7, 16, 14, 11, 10, 8, 6, 11, 10, 9, 8, 8, 7, 16, 15, 13, 12, 9, 8, 9, 8, 7, 7, 7, 6, 15, 14, 14, 13, 10, 9, 19, 18, 17, 17, 17, 16, 18, 17, 17, 17, 17, 17, 5, 4, 4, 3, 3, 3, 10, 9, 7, 7, 5, 5, 17, 16, 16, 16, 15, 15, 14, 12, 12, 12, 10, 10, 15, 11, 10, 10, 8, 5, 15, 15, 14, 14, 12, 12, 17, 17, 17, 17, 17, 17, 16, 16, 16, 16, 16, 16, 4, 4, 4, 4, 4, 4, 9, 8, 8, 8, 7, 7, 15, 14, 13, 12, 12, 10, 14, 12, 12, 12, 10, 10, 16, 12, 9, 7, 7, 3, 15, 11, 9, 7, 7, 3, 15, 13, 13, 9, 7, 6, 11, 9, 8, 5, 5, 3, 10, 8, 7, 6, 4, 2, 7, 6, 5, 3, 3, 2, 17, 16, 13, 13, 12, 10, 14, 12, 10, 9, 7, 7, 10, 10, 8, 7, 4, 4, 18, 16, 14, 13, 11, 9, 17, 15, 15, 14, 12, 10, 6, 6, 5, 5, 4, 3, 9, 6, 6, 4, 4, 3, 12, 11, 10, 9, 7, 6, 2, 1, 1, 1, 1, 1, 5, 4, 4, 3, 2, 2, 7, 7, 6, 6, 6, 5, 7, 5, 4, 3, 2, 1, 10, 9, 8, 5, 5, 3, 17, 16, 13, 11, 8, 7, 17, 16, 11, 8, 7, 5, 18, 18, 17, 17, 17, 16, 3, 3, 2, 2, 1, 1, 19, 17, 16, 16, 14, 14, 14, 12, 11, 9, 6, 5, 19, 18, 18, 17, 17, 16, 15, 14, 12, 12, 10, 9, 18, 16, 15, 11, 10, 8, 6, 5, 5, 5, 5, 5, 13, 10, 9, 9, 8, 7, 12, 12, 12, 12, 12, 12, 17, 16, 13, 9, 8, 3, 8, 7, 7, 6, 5, 5, 16, 14, 14, 14, 12, 12, 14, 14, 12, 12, 10, 10, 13, 12, 11, 9, 9, 8, 19, 16, 11, 8, 6, 1, 19, 18, 17, 16, 15, 15, 12, 11, 11, 11, 11, 11, 19, 19, 18, 18, 16, 16, 13, 12, 12, 11, 10, 10, 17, 16, 12, 9, 8, 3, 13, 12, 11, 10, 7, 5, 19, 14, 14, 10, 5, 3, 11, 11, 11, 11, 11, 11, 14, 12, 10, 7, 5, 1, 7, 6, 5, 4, 4, 3, 15, 15, 15, 14, 14, 13, 14, 12, 9, 7, 7, 5, 19, 19, 19, 18, 18, 18, 7, 7, 7, 7, 7, 7, 5, 5, 5, 5, 5, 5, 10, 10, 8, 5, 3, 2, 7, 6, 6, 5, 4, 4, 11, 11, 10, 10, 8, 8, 3, 2, 2, 2, 2, 2, 8, 7, 5, 5, 3, 3, 20, 17, 15, 12, 11, 8, 7, 6, 4, 3, 2, 1, 19, 17, 16, 13, 13, 11, 18, 15, 14, 13, 11, 9, 12, 11, 10, 8, 7, 5, 17, 15, 14, 12, 11, 11, 14, 14, 12, 11, 10, 9, 18, 17, 17, 17, 17, 17, 9, 9, 9, 9, 9, 9, 15, 12, 12, 11, 10, 8, 8, 7, 6, 5, 3, 3, 9, 8, 7, 7, 6, 6, 13, 13, 13, 13, 13, 13, 5, 4, 4, 3, 3, 2, 18, 17, 16, 16, 16, 15, 19, 19, 17, 16, 15, 15, 18, 16, 13, 12, 12, 10, 10, 7, 7, 4, 3, 1, 8, 7, 7, 6, 5, 5, 16, 15, 14, 14, 14, 13, 14, 13, 13, 12, 9, 9, 6, 6, 6, 6, 6, 6, 12, 11, 11, 11, 11, 11
 |10, 8, 6, 5, 4, 3, 8, 8, 8, 8, 7, 7, 9, 7, 7, 5, 3, 3, 14, 13, 9, 7, 7, 4, 17, 17, 16, 15, 14, 14, 6, 6, 6, 6, 6, 6, 16, 15, 15, 14, 14, 13, 14, 13, 12, 12, 11, 11, 19, 17, 15, 14, 12, 12, 6, 6, 5, 5, 5, 4, 15, 14, 12, 11, 10, 9, 9, 8, 7, 7, 5, 5, 6, 6, 6, 6, 6, 6, 18, 15, 11, 10, 6, 4, 14, 12, 12, 9, 7, 6, 16, 16, 14, 14, 13, 11, 12, 11, 9, 6, 5, 4, 11, 9, 8, 7, 3, 1, 13, 10, 8, 6, 6, 4, 13, 13, 13, 13, 13, 13, 20, 19, 19, 19, 19, 19, 18, 18, 18, 18, 18, 18, 4, 3, 2, 2, 1, 1, 17, 13, 13, 12, 10, 7, 17, 13, 11, 11, 9, 5, 15, 14, 13, 13, 11, 11, 9, 8, 8, 7, 6, 6, 10, 8, 8, 8, 7, 6, 4, 4, 4, 4, 4, 4, 13, 12, 10, 9, 8, 5, 14, 12, 11, 9, 7, 6, 6, 6, 6, 6, 6, 6, 11, 11, 10, 9, 8, 7, 10, 9, 8, 8, 6, 6, 19, 19, 18, 18, 17, 17, 4, 4, 4, 4, 4, 4, 8, 7, 7, 5, 4, 4, 19, 17, 13, 11, 11, 9, 14, 12, 10, 9, 6, 5, 18, 18, 16, 13, 13, 11, 10, 8, 8, 6, 6, 5, 11, 10, 9, 9, 8, 7, 10, 9, 8, 8, 6, 6, 19, 17, 16, 15, 14, 13, 7, 5, 5, 4, 2, 2, 14, 12, 9, 9, 6, 4, 10, 9, 8, 8, 6, 5, 20, 17, 15, 12, 10, 9, 19, 19, 18, 16, 16, 15, 6, 6, 5, 3, 2, 2, 7, 5, 5, 3, 2, 2, 10, 10, 10, 10, 9, 9, 8, 7, 6, 5, 4, 4, 8, 8, 8, 8, 8, 8, 17, 16, 16, 16, 16, 16, 8, 7, 6, 6, 6, 5, 15, 14, 13, 11, 9, 7, 17, 17, 17, 17, 16, 16, 7, 7, 7, 7, 7, 7, 9, 9, 7, 6, 6, 5, 5, 4, 3, 3, 3, 2, 16, 14, 10, 8, 6, 2, 10, 10, 8, 6, 4, 3, 18, 16, 15, 15, 13, 13, 10, 8, 8, 4, 3, 2, 10, 7, 7, 4, 2, 1, 20, 17, 15, 12, 11, 9, 11, 10, 9, 9, 7, 7, 1, 1, 1, 1, 1, 1, 15, 15, 15, 15, 14, 14, 18, 18, 15, 14, 14, 12, 20, 15, 13, 12, 10, 8, 12, 11, 11, 11, 11, 11, 11, 10, 9, 9, 8, 8, 13, 12, 10, 8, 8, 6, 13, 9, 9, 5, 4, 3, 19, 15, 13, 11, 11, 9, 4, 3, 3, 3, 2, 2, 17, 15, 15, 12, 10, 8, 9, 9, 9, 9, 9, 9, 19, 19, 18, 18, 17, 17, 19, 19, 17, 16, 15, 15, 13, 13, 10, 8, 6, 3, 11, 9, 9, 8, 6, 6, 16, 15, 12, 11, 10, 7, 12, 11, 11, 10, 9, 9, 14, 14, 13, 12, 12, 11, 7, 6, 6, 6, 6, 6, 1, 1, 1, 1, 1, 1, 16, 12, 12, 11, 8, 6, 9, 8, 8, 7, 6, 6, 6, 5, 5, 5, 4, 3, 17, 17, 17, 17, 17, 17, 14, 13, 13, 12, 11, 10, 13, 12, 10, 10, 8, 8, 5, 5, 5, 4, 4, 4, 8, 7, 6, 4, 3, 3, 17, 16, 16, 16, 16, 16, 8, 6, 4, 4, 2, 1, 15, 14, 9, 9, 4, 4
 |5, 5, 5, 4, 4, 4, 12, 10, 10, 9, 7, 6, 18, 17, 15, 14, 14, 12, 17, 11, 11, 8, 5, 2, 11, 11, 11, 11, 11, 11, 3, 3, 3, 2, 2, 2, 17, 16, 14, 12, 12, 9, 17, 16, 16, 14, 14, 13, 12, 11, 11, 11, 11, 11, 16, 13, 12, 8, 8, 4, 8, 7, 7, 6, 6, 5, 18, 13, 11, 11, 5, 4, 15, 13, 9, 8, 4, 2, 17, 16, 16, 16, 15, 15, 17, 15, 15, 13, 12, 12, 16, 14, 11, 9, 8, 7, 19, 19, 19, 19, 19, 19, 17, 17, 15, 15, 13, 12, 11, 10, 9, 9, 6, 6, 8, 7, 7, 6, 6, 5, 14, 14, 14, 13, 12, 12, 19, 19, 19, 18, 18, 18, 11, 9, 8, 5, 4, 2, 6, 5, 5, 3, 2, 2, 15, 13, 13, 11, 11, 10, 9, 8, 7, 6, 5, 5, 17, 15, 11, 8, 3, 2, 12, 12, 10, 10, 8, 7, 12, 11, 11, 10, 10, 10, 19, 17, 17, 17, 16, 15, 15, 13, 13, 13, 12, 11, 6, 6, 4, 4, 3, 2, 19, 16, 13, 9, 8, 4, 12, 11, 7, 7, 3, 2, 16, 13, 9, 8, 7, 4, 17, 13, 11, 9, 5, 1, 11, 11, 9, 8, 8, 7, 8, 8, 8, 7, 6, 6, 10, 8, 7, 6, 4, 2, 14, 13, 13, 13, 12, 12, 14, 10, 10, 7, 6, 5, 16, 12, 10, 10, 6, 3, 14, 13, 12, 11, 11, 9, 4, 4, 4, 4, 4, 4, 15, 13, 11, 10, 9, 7, 16, 15, 14, 13, 12, 11, 19, 19, 19, 19, 18, 18, 13, 11, 10, 9, 9, 7, 15, 14, 11, 9, 9, 5, 15, 12, 11, 7, 3, 1, 7, 6, 5, 5, 5, 4, 15, 15, 15, 15, 15, 15, 16, 12, 12, 6, 4, 3, 10, 9, 7, 6, 2, 1, 12, 11, 8, 8, 5, 4, 11, 11, 10, 7, 6, 4, 18, 18, 18, 18, 18, 18, 7, 7, 6, 5, 2, 1, 8, 7, 7, 7, 6, 5, 15, 12, 9, 9, 7, 4, 16, 16, 16, 16, 15, 15, 18, 16, 14, 14, 12, 10, 17, 17, 16, 16, 15, 14, 11, 11, 8, 5, 3, 1, 15, 12, 11, 10, 7, 6, 12, 11, 11, 10, 8, 8, 17, 15, 11, 9, 5, 2, 9, 9, 9, 9, 9, 9, 19, 18, 15, 14, 12, 11, 12, 10, 7, 7, 3, 1, 17, 15, 15, 12, 11, 7, 3, 2, 2, 2, 2, 2, 18, 18, 16, 16, 14, 13, 9, 8, 7, 6, 5, 5, 14, 11, 9, 7, 4, 3, 12, 12, 12, 11, 10, 10, 4, 4, 4, 4, 4, 4, 19, 14, 12, 7, 7, 4, 20, 16, 15, 13, 11, 7, 15, 15, 15, 14, 14, 13, 18, 15, 15, 14, 11, 10, 16, 15, 14, 12, 11, 10, 11, 9, 8, 7, 6, 4, 17, 15, 15, 15, 14, 13, 10, 10, 9, 9, 9, 8, 18, 17, 16, 16, 16, 15, 19, 17, 17, 16, 15, 14, 13, 12, 12, 12, 11, 10, 19, 19, 19, 19, 19, 19, 15, 13, 11, 9, 7, 3, 15, 14, 14, 13, 13, 13, 20, 18, 16, 15, 14, 13, 15, 15, 15, 14, 14, 14, 17, 17, 17, 17, 17, 17, 17, 15, 15, 13, 12, 12, 10, 10, 9, 9, 8, 8, 15, 14, 13, 13, 11, 11, 17, 16, 15, 15, 13, 13, 16, 15, 14, 12, 8, 8, 8, 8, 8, 7, 7, 6
 |8, 8, 8, 8, 8, 8, 16, 16, 15, 14, 13, 13, 15, 14, 13, 12, 12, 11, 10, 10, 10, 10, 10, 10, 11, 10, 10, 9, 9, 9, 14, 10, 9, 7, 4, 2, 10, 9, 8, 8, 6, 6, 17, 14, 12, 12, 8, 8, 8, 7, 6, 5, 2, 1, 13, 13, 12, 10, 10, 9, 5, 5, 5, 5, 5, 5, 14, 11, 9, 8, 8, 5, 4, 4, 4, 4, 4, 4, 11, 11, 10, 10, 10, 9, 18, 18, 18, 18, 18, 18, 16, 14, 13, 13, 12, 10, 13, 12, 12, 11, 10, 10, 16, 13, 11, 9, 6, 5, 18, 14, 11, 10, 7, 3, 16, 13, 12, 12, 8, 8, 15, 13, 13, 12, 11, 11, 16, 15, 15, 12, 12, 11, 18, 14, 13, 9, 8, 5, 15, 12, 9, 9, 6, 4, 8, 7, 6, 5, 4, 3, 18, 15, 15, 12, 10, 10, 8, 7, 5, 4, 4, 2, 5, 4, 4, 4, 4, 4, 17, 16, 16, 15, 14, 14, 13, 13, 11, 11, 10, 9, 14, 11, 10, 7, 4, 4, 11, 10, 8, 7, 4, 2, 19, 18, 16, 14, 13, 12, 8, 7, 7, 7, 5, 5, 19, 16, 14, 10, 10, 7, 9, 8, 8, 8, 7, 7, 12, 12, 12, 11, 10, 10, 16, 13, 10, 9, 7, 4, 12, 11, 11, 11, 11, 11, 16, 15, 15, 13, 13, 11, 17, 16, 16, 15, 14, 14, 5, 5, 4, 4, 3, 2, 6, 4, 4, 2, 2, 1, 16, 15, 12, 12, 8, 7, 1, 1, 1, 1, 1, 1, 7, 6, 4, 4, 2, 2, 16, 16, 16, 16, 16, 16, 12, 11, 10, 9, 8, 6, 12, 11, 9, 8, 7, 7, 16, 14, 13, 10, 10, 8, 19, 18, 18, 17, 17, 17, 4, 3, 3, 3, 3, 3, 11, 11, 10, 10, 10, 9, 16, 15, 12, 6, 4, 3, 12, 12, 11, 11, 9, 9, 14, 13, 13, 11, 11, 10, 15, 15, 13, 13, 11, 10, 8, 7, 5, 4, 3, 3, 19, 15, 11, 9, 6, 4, 14, 13, 13, 12, 12, 11, 14, 14, 14, 14, 14, 14, 17, 16, 15, 15, 14, 12, 16, 14, 14, 13, 12, 10, 12, 10, 9, 5, 5, 2, 18, 14, 12, 10, 7, 6, 13, 13, 13, 13, 13, 13, 13, 12, 12, 11, 11, 11, 20, 20, 20, 20, 20, 20, 20, 18, 17, 17, 16, 15, 18, 15, 12, 11, 8, 4, 12, 10, 9, 9, 7, 6, 17, 14, 13, 10, 9, 7, 18, 18, 17, 17, 16, 15, 15, 15, 15, 15, 15, 15, 16, 13, 12, 9, 6, 4, 13, 11, 8, 7, 5, 5, 11, 10, 10, 9, 9, 9, 14, 14, 13, 13, 11, 11, 5, 4, 4, 4, 4, 4, 14, 12, 11, 10, 10, 9, 16, 16, 15, 15, 15, 14, 20, 16, 11, 10, 7, 1, 11, 9, 9, 6, 4, 4, 9, 7, 5, 4, 2, 2, 11, 11, 8, 7, 7, 4, 9, 9, 8, 6, 3, 2, 7, 7, 7, 7, 7, 7, 11, 11, 10, 8, 7, 7, 19, 18, 17, 16, 14, 14, 17, 16, 15, 14, 12, 12, 17, 15, 15, 13, 9, 8, 11, 10, 9, 8, 7, 6, 12, 11, 11, 10, 9, 9, 7, 6, 5, 5, 3, 3, 3, 3, 3, 3, 2, 2, 14, 14, 14, 13, 13, 13, 12, 12, 12, 12, 12, 12, 1, 1, 1, 1, 1, 1, 6, 6, 4, 3, 2, 1, 18, 18, 15, 15, 13, 12|];